beginners/examples/datatypes.out.smt2
sat
(
(define-fun x () Tree (node 101 nil (node 0 nil nil)))
(define-fun y () Tree (node 0 (node 0 nil (node 0 nil nil)) nil))
)
